
Log started (V11.0.0) Sat May 17 01:08:03 2008

Tried aggregator 1 time.
Reduced MIP has 510 rows, 5001 columns, and 10010 nonzeros.
Presolve time =    0.03 sec.
Clique table members: 500.
MIP emphasis: balance optimality and feasibility.
MIP search method: dynamic search.
Parallel mode: none, using 1 thread.
Root relaxation solution time =    0.11 sec.

        Nodes                                         Cuts/
   Node  Left     Objective  IInf  Best Integer     Best Node    ItCnt     Gap

*     0+    0                        55288.0000     5073.1000      553   90.82%
*     0+    0                         5090.0000     5073.1000      553    0.33%
      0     0     5074.0000    20     5090.0000      Fract: 6      589    0.31%
      0     0     5074.0000    20     5090.0000     Covers: 1      593    0.31%
      0     0     5074.0000    20     5090.0000     Covers: 1      595    0.31%
*     0+    0                         5088.0000     5074.0000      595    0.28%
*     0+    0                         5087.0000     5074.0000      595    0.26%
      0     2     5074.0000    20     5087.0000     5074.0000      595    0.26%
    100    97     5075.0000    18     5087.0000     5074.0000     3625    0.26%
    200   178     5076.0000    19     5087.0000     5074.0000     8958    0.26%
    300   215     5085.0000    16     5087.0000     5074.0000    14251    0.26%
    400   307     5086.0000    18     5087.0000     5074.0000    18790    0.26%
    500   379     5075.0000    15     5087.0000     5074.0000    24462    0.26%
*   532+  344                         5086.0000     5074.0000    25748    0.24%
*   533+  230                         5084.0000     5074.0000    27889    0.20%
*   533+  153                         5083.0000     5074.0000    27889    0.18%
*   533+  101                         5081.0000     5074.0000    27889    0.14%
    600   121     5075.0000    18     5081.0000     5074.0000    28995    0.14%
*   633+  118                         5078.0000     5074.0000    30201    0.08%
    700   141     5075.0000    15     5078.0000     5074.0000    33775    0.08%
    800   215     5075.0000    13     5078.0000     5074.0000    41524    0.08%
    900   304     5076.0000    16     5078.0000     5074.0000    48556    0.08%
   1000   389     5077.0000    16     5078.0000     5074.0000    57445    0.08%
Elapsed time =  31.69 sec. (tree size =  0.67 MB, solutions = 9)
   1100   425     5077.0000    20     5078.0000     5074.0000    77009    0.08%
*  1133+  344                         5077.0000     5074.0000    80265    0.06%
   1200   405     5075.0000    22     5077.0000     5074.0000    84021    0.06%
   1300   458     5076.0000    18     5077.0000     5074.0000    94957    0.06%
   1400   531     5075.0000    24     5077.0000     5074.0000   102818    0.06%
   1500   592     5075.0566    23     5077.0000     5074.0000   111698    0.06%
*  1533+  364                         5076.0000     5074.0000   115091    0.04%
   1600   416     5075.0000    15     5076.0000     5074.0000   118132    0.04%
   1700   472     5075.0000    18     5076.0000     5074.0000   122268    0.04%
   1800   523    infeasible           5076.0000     5074.0000   127150    0.04%
   1900   610     5075.0000    29     5076.0000     5074.0000   131909    0.04%
   2000   671     5075.0000    21     5076.0000     5074.0000   139717    0.04%
Elapsed time =  56.19 sec. (tree size =  1.25 MB, solutions = 11)
   2100   748     5075.0000    32     5076.0000     5074.0000   144971    0.04%
   2200   810     5075.0000    18     5076.0000     5074.0000   153017    0.04%
   2300   881     5075.0000    12     5076.0000     5074.0000   159887    0.04%
   2400   958     5075.0000    26     5076.0000     5074.0000   164435    0.04%
   2500  1036     5075.0000    12     5076.0000     5074.0000   171570    0.04%
   2600  1114     5075.0000    29     5076.0000     5074.0000   178373    0.04%
   2700  1184     5075.0000    21     5076.0000     5074.0000   184431    0.04%
   2800  1250     5075.0000    20     5076.0000     5074.0000   192965    0.04%
   2900  1296     5075.0000    23     5076.0000     5074.0000   201021    0.04%
   3000  1384     5075.0000    19     5076.0000     5074.0000   204337    0.04%
Elapsed time =  75.25 sec. (tree size =  2.67 MB, solutions = 11)
   3100  1460     5075.0000    28     5076.0000     5074.0000   209902    0.04%
   3200  1544     5075.0000    22     5076.0000     5074.0000   213771    0.04%
   3300  1629     5075.0000    22     5076.0000     5074.0000   217508    0.04%
   3400  1716     5075.0000    27     5076.0000     5074.0000   222062    0.04%
   3500  1788    infeasible           5076.0000     5074.0000   229011    0.04%
*  3533+   33                         5075.0000     5074.0000   230825    0.02%
   3600    31    infeasible           5075.0000     5074.0000   245655    0.02%
   3700    84     5074.0000    18     5075.0000     5074.0000   259945    0.02%
   3800   164     5074.0000    31     5075.0000     5074.0000   273502    0.02%
   3900   220     5074.0000    29     5075.0000     5074.0000   292383    0.02%
   4000   286     5074.0000    34     5075.0000     5074.0000   311314    0.02%
Elapsed time = 106.94 sec. (tree size =  0.44 MB, solutions = 12)
   4100   367     5074.0000    36     5075.0000     5074.0000   326015    0.02%
   4200   433     5074.0000    34     5075.0000     5074.0000   345000    0.02%
   4300   515     5074.0000    34     5075.0000     5074.0000   363394    0.02%
   4400   581     5074.0000    23     5075.0000     5074.0000   383471    0.02%
   4500   635     5074.0000    28     5075.0000     5074.0000   405140    0.02%
   4600   690     5074.0000    40     5075.0000     5074.0000   436435    0.02%
   4700   752     5074.0000    43     5075.0000     5074.0000   466832    0.02%
   4800   832    infeasible           5075.0000     5074.0000   490794    0.02%
   4900   878     5074.0000    50     5075.0000     5074.0000   514223    0.02%
   5000   936     5074.0000    40     5075.0000     5074.0000   545945    0.02%
Elapsed time = 208.86 sec. (tree size =  1.39 MB, solutions = 12)
   5100   985    infeasible           5075.0000     5074.0000   581914    0.02%
   5200  1019     5074.0000    46     5075.0000     5074.0000   625074    0.02%
   5300  1075    infeasible           5075.0000     5074.0000   660550    0.02%
   5400  1151    infeasible           5075.0000     5074.0000   683375    0.02%
   5500  1196    infeasible           5075.0000     5074.0000   710988    0.02%
   5600  1252     5074.0000    61     5075.0000     5074.0000   742278    0.02%
   5700  1310    infeasible           5075.0000     5074.0000   777078    0.02%
   5800  1359     5074.0000    41     5075.0000     5074.0000   806465    0.02%
   5900  1398     5074.0000    54     5075.0000     5074.0000   845384    0.02%
   6000  1456     5074.0000    39     5075.0000     5074.0000   879293    0.02%
Elapsed time = 396.76 sec. (tree size =  2.17 MB, solutions = 12)
   6100  1509     5074.0000    30     5075.0000     5074.0000   919929    0.02%
   6200  1569     5074.0000    24     5075.0000     5074.0000   944383    0.02%
   6300  1591     5074.0000    62     5075.0000     5074.0000   990259    0.02%
   6400  1645    infeasible           5075.0000     5074.0000  1024894    0.02%
   6500  1703     5074.0000    53     5075.0000     5074.0000  1069117    0.02%
   6600  1756    infeasible           5075.0000     5074.0000  1111350    0.02%
   6700  1824     5074.0000    53     5075.0000     5074.0000  1145700    0.02%
   6800  1886     5074.0000    39     5075.0000     5074.0000  1174760    0.02%
   6900  1955     5074.0000    42     5075.0000     5074.0000  1205214    0.02%
   7000  2019     5074.0000    47     5075.0000     5074.0000  1237673    0.02%
Elapsed time = 639.50 sec. (tree size =  3.02 MB, solutions = 12)
   7100  2083     5074.0000    47     5075.0000     5074.0000  1265349    0.02%
   7200  2121     5074.0000    32     5075.0000     5074.0000  1296848    0.02%
   7300  2163    infeasible           5075.0000     5074.0000  1334047    0.02%
   7400  2210     5074.0000    56     5075.0000     5074.0000  1375094    0.02%
   7500  2244     5074.0000    29     5075.0000     5074.0000  1410323    0.02%
   7600  2267     5074.0000    62     5075.0000     5074.0000  1458408    0.02%
   7700  2319     5074.0000    45     5075.0000     5074.0000  1504133    0.02%
   7800  2315     5074.0000    58     5075.0000     5074.0000  1555329    0.02%
   7900  2332     5074.0000    63     5075.0000     5074.0000  1611037    0.02%
   8000  2352    infeasible           5075.0000     5074.0000  1658939    0.02%
Elapsed time = 967.08 sec. (tree size =  3.59 MB, solutions = 12)
   8100  2346     5074.0000    34     5075.0000     5074.0000  1712410    0.02%
   8200  2364    infeasible           5075.0000     5074.0000  1760795    0.02%
   8300  2334     5074.0000    52     5075.0000     5074.0000  1825301    0.02%
   8400  2324    infeasible           5075.0000     5074.0000  1881352    0.02%
   8500  2342     5074.0000    38     5075.0000     5074.0000  1932700    0.02%
   8600  2392     5074.0000    55     5075.0000     5074.0000  1975924    0.02%
   8700  2436     5074.0000    28     5075.0000     5074.0000  2021067    0.02%
   8800  2437    infeasible           5075.0000     5074.0000  2075583    0.02%
   8900  2441     5074.0000    49     5075.0000     5074.0000  2138329    0.02%
   9000  2485    infeasible           5075.0000     5074.0000  2182082    0.02%
Elapsed time = 1441.73 sec. (tree size =  3.81 MB, solutions = 12)
   9100  2518    infeasible           5075.0000     5074.0000  2231769    0.02%
   9200  2566     5074.0000    56     5075.0000     5074.0000  2283871    0.02%
   9300  2568     5074.0000    46     5075.0000     5074.0000  2341422    0.02%
   9400  2526    infeasible           5075.0000     5074.0000  2408677    0.02%
   9500  2487     5074.0000    43     5075.0000     5074.0000  2480872    0.02%
   9600  2511     5074.0000    48     5075.0000     5074.0000  2529713    0.02%
   9700  2541     5074.0000    51     5075.0000     5074.0000  2586929    0.02%
   9800  2563    infeasible           5075.0000     5074.0000  2641699    0.02%
   9900  2580    infeasible           5075.0000     5074.0000  2698070    0.02%
*  9933+    2                         5074.0000     5074.0000  2716959    0.00%

Cover cuts applied:  1403
Mixed integer rounding cuts applied:  3
Gomory fractional cuts applied:  3

Solution pool: 13 solutions saved.

MIP - Integer optimal solution:  Objective = 5.0740000000e+003
Solution time = 1960.34 sec.  Iterations = 2716959  Nodes = 9933


Incumbent solution
Variable Name           Solution Value
Cmax                       5074.000000
X_1_2                         1.000000
X_2_7                         1.000000
X_3_1                         1.000000
X_4_4                         1.000000
X_5_1                         1.000000
X_6_2                         1.000000
X_7_8                         1.000000
X_8_9                         1.000000
X_9_4                         1.000000
X_10_8                        1.000000
X_11_8                        1.000000
X_12_1                        1.000000
X_13_10                       1.000000
X_14_5                        1.000000
X_15_5                        1.000000
X_16_10                       1.000000
X_17_2                        1.000000
X_18_2                        1.000000
X_19_2                        1.000000
X_20_2                        1.000000
X_21_3                        1.000000
X_22_9                        1.000000
X_23_1                        1.000000
X_24_10                       1.000000
X_25_4                        1.000000
X_26_6                        1.000000
X_27_4                        1.000000
X_28_3                        1.000000
X_29_2                        1.000000
X_30_6                        1.000000
X_31_4                        1.000000
X_32_7                        1.000000
X_33_1                        1.000000
X_34_6                        1.000000
X_35_7                        1.000000
X_36_10                       1.000000
X_37_2                        1.000000
X_38_2                        1.000000
X_39_7                        1.000000
X_40_7                        1.000000
X_41_5                        1.000000
X_42_6                        1.000000
X_43_6                        1.000000
X_44_8                        1.000000
X_45_10                       1.000000
X_46_6                        1.000000
X_47_2                        1.000000
X_48_9                        1.000000
X_49_2                        1.000000
X_50_8                        1.000000
X_51_2                        1.000000
X_52_6                        1.000000
X_53_7                        1.000000
X_54_4                        1.000000
X_55_3                        1.000000
X_56_2                        1.000000
X_57_10                       1.000000
X_58_3                        1.000000
X_59_7                        1.000000
X_60_3                        1.000000
X_61_1                        1.000000
X_62_9                        1.000000
X_63_5                        1.000000
X_64_7                        1.000000
X_65_8                        1.000000
X_66_3                        1.000000
X_67_10                       1.000000
X_68_3                        1.000000
X_69_10                       1.000000
X_70_6                        1.000000
X_71_7                        1.000000
X_72_4                        1.000000
X_73_2                        1.000000
X_74_5                        1.000000
X_75_10                       1.000000
X_76_7                        1.000000
X_77_2                        1.000000
X_78_8                        1.000000
X_79_10                       1.000000
X_80_3                        1.000000
X_81_9                        1.000000
X_82_10                       1.000000
X_83_4                        1.000000
X_84_2                        1.000000
X_85_1                        1.000000
X_86_2                        1.000000
X_87_6                        1.000000
X_88_1                        1.000000
X_89_8                        1.000000
X_90_2                        1.000000
X_91_1                        1.000000
X_92_6                        1.000000
X_93_9                        1.000000
X_94_9                        1.000000
X_95_2                        1.000000
X_96_10                       1.000000
X_97_6                        1.000000
X_98_4                        1.000000
X_99_1                        1.000000
X_100_4                       1.000000
X_101_9                       1.000000
X_102_3                       1.000000
X_103_2                       1.000000
X_104_9                       1.000000
X_105_5                       1.000000
X_106_5                       1.000000
X_107_7                       1.000000
X_108_8                       1.000000
X_109_6                       1.000000
X_110_8                       1.000000
X_111_2                       1.000000
X_112_10                      1.000000
X_113_5                       1.000000
X_114_8                       1.000000
X_115_8                       1.000000
X_116_1                       1.000000
X_117_4                       1.000000
X_118_9                       1.000000
X_119_5                       1.000000
X_120_3                       1.000000
X_121_6                       1.000000
X_122_1                       1.000000
X_123_8                       1.000000
X_124_4                       1.000000
X_125_9                       1.000000
X_126_9                       1.000000
X_127_1                       1.000000
X_128_4                       1.000000
X_129_10                      1.000000
X_130_1                       1.000000
X_131_2                       1.000000
X_132_9                       1.000000
X_133_5                       1.000000
X_134_1                       1.000000
X_135_1                       1.000000
X_136_8                       1.000000
X_137_5                       1.000000
X_138_5                       1.000000
X_139_8                       1.000000
X_140_9                       1.000000
X_141_1                       1.000000
X_142_6                       1.000000
X_143_4                       1.000000
X_144_4                       1.000000
X_145_10                      1.000000
X_146_9                       1.000000
X_147_3                       1.000000
X_148_2                       1.000000
X_149_2                       1.000000
X_150_4                       1.000000
X_151_5                       1.000000
X_152_6                       1.000000
X_153_1                       1.000000
X_154_8                       1.000000
X_155_3                       1.000000
X_156_5                       1.000000
X_157_4                       1.000000
X_158_2                       1.000000
X_159_2                       1.000000
X_160_10                      1.000000
X_161_6                       1.000000
X_162_1                       1.000000
X_163_6                       1.000000
X_164_5                       1.000000
X_165_5                       1.000000
X_166_8                       1.000000
X_167_7                       1.000000
X_168_7                       1.000000
X_169_4                       1.000000
X_170_4                       1.000000
X_171_3                       1.000000
X_172_10                      1.000000
X_173_4                       1.000000
X_174_2                       1.000000
X_175_8                       1.000000
X_176_9                       1.000000
X_177_9                       1.000000
X_178_7                       1.000000
X_179_9                       1.000000
X_180_8                       1.000000
X_181_6                       1.000000
X_182_5                       1.000000
X_183_8                       1.000000
X_184_2                       1.000000
X_185_3                       1.000000
X_186_9                       1.000000
X_187_7                       1.000000
X_188_5                       1.000000
X_189_4                       1.000000
X_190_7                       1.000000
X_191_7                       1.000000
X_192_6                       1.000000
X_193_2                       1.000000
X_194_5                       1.000000
X_195_3                       1.000000
X_196_7                       1.000000
X_197_1                       1.000000
X_198_10                      1.000000
X_199_6                       1.000000
X_200_9                       1.000000
X_201_1                       1.000000
X_202_5                       1.000000
X_203_3                       1.000000
X_204_8                       1.000000
X_205_5                       1.000000
X_206_8                       1.000000
X_207_8                       1.000000
X_208_5                       1.000000
X_209_9                       1.000000
X_210_9                       1.000000
X_211_7                       1.000000
X_212_6                       1.000000
X_213_7                       1.000000
X_214_6                       1.000000
X_215_1                       1.000000
X_216_7                       1.000000
X_217_1                       1.000000
X_218_5                       1.000000
X_219_5                       1.000000
X_220_1                       1.000000
X_221_1                       1.000000
X_222_5                       1.000000
X_223_8                       1.000000
X_224_8                       1.000000
X_225_2                       1.000000
X_226_6                       1.000000
X_227_10                      1.000000
X_228_1                       1.000000
X_229_6                       1.000000
X_230_6                       1.000000
X_231_7                       1.000000
X_232_4                       1.000000
X_233_2                       1.000000
X_234_7                       1.000000
X_235_8                       1.000000
X_236_6                       1.000000
X_237_4                       1.000000
X_238_3                       1.000000
X_239_7                       1.000000
X_240_7                       1.000000
X_241_10                      1.000000
X_242_6                       1.000000
X_243_1                       1.000000
X_244_6                       1.000000
X_245_3                       1.000000
X_246_6                       1.000000
X_247_3                       1.000000
X_248_2                       1.000000
X_249_10                      1.000000
X_250_2                       1.000000
X_251_6                       1.000000
X_252_2                       1.000000
X_253_8                       1.000000
X_254_2                       1.000000
X_255_6                       1.000000
X_256_7                       1.000000
X_257_9                       1.000000
X_258_6                       1.000000
X_259_2                       1.000000
X_260_9                       1.000000
X_261_3                       1.000000
X_262_10                      1.000000
X_263_1                       1.000000
X_264_7                       1.000000
X_265_2                       1.000000
X_266_5                       1.000000
X_267_8                       1.000000
X_268_6                       1.000000
X_269_1                       1.000000
X_270_6                       1.000000
X_271_6                       1.000000
X_272_6                       1.000000
X_273_2                       1.000000
X_274_1                       1.000000
X_275_3                       1.000000
X_276_5                       1.000000
X_277_3                       1.000000
X_278_7                       1.000000
X_279_8                       1.000000
X_280_3                       1.000000
X_281_8                       1.000000
X_282_9                       1.000000
X_283_6                       1.000000
X_284_5                       1.000000
X_285_10                      1.000000
X_286_8                       1.000000
X_287_6                       1.000000
X_288_4                       1.000000
X_289_1                       1.000000
X_290_5                       1.000000
X_291_7                       1.000000
X_292_3                       1.000000
X_293_2                       1.000000
X_294_5                       1.000000
X_295_9                       1.000000
X_296_3                       1.000000
X_297_7                       1.000000
X_298_3                       1.000000
X_299_8                       1.000000
X_300_2                       1.000000
X_301_1                       1.000000
X_302_5                       1.000000
X_303_7                       1.000000
X_304_5                       1.000000
X_305_1                       1.000000
X_306_5                       1.000000
X_307_9                       1.000000
X_308_4                       1.000000
X_309_8                       1.000000
X_310_10                      1.000000
X_311_8                       1.000000
X_312_9                       1.000000
X_313_4                       1.000000
X_314_1                       1.000000
X_315_4                       1.000000
X_316_6                       1.000000
X_317_8                       1.000000
X_318_9                       1.000000
X_319_10                      1.000000
X_320_3                       1.000000
X_321_8                       1.000000
X_322_4                       1.000000
X_323_3                       1.000000
X_324_4                       1.000000
X_325_10                      1.000000
X_326_6                       1.000000
X_327_4                       1.000000
X_328_8                       1.000000
X_329_2                       1.000000
X_330_7                       1.000000
X_331_8                       1.000000
X_332_3                       1.000000
X_333_1                       1.000000
X_334_2                       1.000000
X_335_3                       1.000000
X_336_5                       1.000000
X_337_3                       1.000000
X_338_7                       1.000000
X_339_10                      1.000000
X_340_4                       1.000000
X_341_1                       1.000000
X_342_4                       1.000000
X_343_9                       1.000000
X_344_6                       1.000000
X_345_10                      1.000000
X_346_10                      1.000000
X_347_10                      1.000000
X_348_9                       1.000000
X_349_6                       1.000000
X_350_3                       1.000000
X_351_1                       1.000000
X_352_3                       1.000000
X_353_1                       1.000000
X_354_2                       1.000000
X_355_4                       1.000000
X_356_9                       1.000000
X_357_3                       1.000000
X_358_4                       1.000000
X_359_7                       1.000000
X_360_3                       1.000000
X_361_8                       1.000000
X_362_4                       1.000000
X_363_7                       1.000000
X_364_8                       1.000000
X_365_9                       1.000000
X_366_9                       1.000000
X_367_6                       1.000000
X_368_10                      1.000000
X_369_3                       1.000000
X_370_5                       1.000000
X_371_9                       1.000000
X_372_3                       1.000000
X_373_1                       1.000000
X_374_3                       1.000000
X_375_3                       1.000000
X_376_5                       1.000000
X_377_3                       1.000000
X_378_6                       1.000000
X_379_10                      1.000000
X_380_4                       1.000000
X_381_7                       1.000000
X_382_10                      1.000000
X_383_9                       1.000000
X_384_5                       1.000000
X_385_7                       1.000000
X_386_5                       1.000000
X_387_3                       1.000000
X_388_7                       1.000000
X_389_3                       1.000000
X_390_7                       1.000000
X_391_6                       1.000000
X_392_4                       1.000000
X_393_3                       1.000000
X_394_10                      1.000000
X_395_3                       1.000000
X_396_5                       1.000000
X_397_4                       1.000000
X_398_1                       1.000000
X_399_4                       1.000000
X_400_7                       1.000000
X_401_2                       1.000000
X_402_9                       1.000000
X_403_10                      1.000000
X_404_9                       1.000000
X_405_10                      1.000000
X_406_4                       1.000000
X_407_2                       1.000000
X_408_8                       1.000000
X_409_10                      1.000000
X_410_6                       1.000000
X_411_1                       1.000000
X_412_7                       1.000000
X_413_1                       1.000000
X_414_7                       1.000000
X_415_4                       1.000000
X_416_8                       1.000000
X_417_3                       1.000000
X_418_5                       1.000000
X_419_10                      1.000000
X_420_5                       1.000000
X_421_9                       1.000000
X_422_7                       1.000000
X_423_9                       1.000000
X_424_4                       1.000000
X_425_8                       1.000000
X_426_8                       1.000000
X_427_5                       1.000000
X_428_8                       1.000000
X_429_5                       1.000000
X_430_10                      1.000000
X_431_1                       1.000000
X_432_9                       1.000000
X_433_3                       1.000000
X_434_8                       1.000000
X_435_9                       1.000000
X_436_10                      1.000000
X_437_9                       1.000000
X_438_8                       1.000000
X_439_10                      1.000000
X_440_6                       1.000000
X_441_1                       1.000000
X_442_10                      1.000000
X_443_3                       1.000000
X_444_1                       1.000000
X_445_4                       1.000000
X_446_2                       1.000000
X_447_1                       1.000000
X_448_9                       1.000000
X_449_9                       1.000000
X_450_10                      1.000000
X_451_3                       1.000000
X_452_9                       1.000000
X_453_1                       1.000000
X_454_4                       1.000000
X_455_6                       1.000000
X_456_2                       1.000000
X_457_10                      1.000000
X_458_9                       1.000000
X_459_9                       1.000000
X_460_10                      1.000000
X_461_6                       1.000000
X_462_5                       1.000000
X_463_2                       1.000000
X_464_5                       1.000000
X_465_7                       1.000000
X_466_2                       1.000000
X_467_4                       1.000000
X_468_4                       1.000000
X_469_7                       1.000000
X_470_5                       1.000000
X_471_5                       1.000000
X_472_5                       1.000000
X_473_10                      1.000000
X_474_7                       1.000000
X_475_9                       1.000000
X_476_7                       1.000000
X_477_4                       1.000000
X_478_10                      1.000000
X_479_5                       1.000000
X_480_6                       1.000000
X_481_1                       1.000000
X_482_8                       1.000000
X_483_10                      1.000000
X_484_10                      1.000000
X_485_8                       1.000000
X_486_7                       1.000000
X_487_2                       1.000000
X_488_1                       1.000000
X_489_3                       1.000000
X_490_9                       1.000000
X_491_7                       1.000000
X_492_4                       1.000000
X_493_5                       1.000000
X_494_8                       1.000000
X_495_1                       1.000000
X_496_10                      1.000000
X_497_4                       1.000000
X_498_3                       1.000000
X_499_4                       1.000000
X_500_7                       1.000000
All other variables in the range 1-5001 are 0.
